p cnf 619 680
c ind 281 282 283 284 285 286 287 288 289 290 0
c ind 291 292 293 294 295 296 297 298 299 300 0
c ind 301 302 303 304 305 306 307 308 309 310 0
c ind 311 312 313 314 315 316 317 318 319 320 0
c ind 321 322 323 324 325 326 327 328 329 330 0
c ind 331 332 333 334 335 336 337 338 339 340 0
c ind 341 342 343 344 345 346 347 348 349 350 0
c ind 351 352 353 354 355 356 357 358 359 360 0
c ind 361 362 363 364 365 366 367 368 369 370 0
c ind 371 372 373 374 375 376 377 378 379 380 0
c ind 381 382 383 384 385 386 387 388 389 390 0
c ind 391 392 393 394 395 396 397 398 399 400 0
c ind 401 402 403 404 405 406 407 408 409 410 0
c ind 411 412 413 414 415 416 417 418 419 420 0
c ind 421 422 423 424 425 426 427 428 429 430 0
c ind 431 432 433 434 435 436 437 438 439 440 0
c ind 441 442 443 444 445 446 447 448 449 450 0
c ind 451 452 453 454 455 456 457 458 459 460 0
c ind 461 462 463 464 465 466 467 468 469 470 0
c ind 471 472 473 474 475 476 477 478 479 480 0
c ind 481 482 483 484 485 486 487 488 489 490 0
c ind 491 492 493 494 495 496 497 498 499 500 0
c ind 501 502 503 504 505 506 507 508 509 510 0
c ind 511 512 513 514 515 516 517 518 519 520 0
c ind 521 522 523 524 525 526 527 528 529 530 0
c ind 531 532 533 534 535 536 537 538 539 540 0
c ind 541 542 543 544 545 546 547 548 549 550 0
c ind 551 552 553 554 555 556 557 558 559 560 0
c ind 561 562 563 564 565 566 567 568 569 570 0
c ind 571 572 573 574 575 576 577 578 579 580 0
c ind 581 582 583 584 585 586 587 588 589 590 0
c ind 591 592 593 594 595 596 597 598 599 600 0
c ind 601 602 603 604 605 606 607 608 609 610 0
c ind 611 612 613 614 615 616 617 618 619 0
4 0
-14 0
-1 -281 13 0
1 -281 -13 0
-1 -282 15 0
1 -282 -15 0
-2 -283 32 0
2 -283 -32 0
-3 -284 13 0
3 -284 -13 0
-3 -285 21 0
3 -285 -21 0
-4 -286 5 0
4 -286 -5 0
-4 -287 17 0
4 -287 -17 0
-4 -288 130 0
4 -288 -130 0
-4 -289 132 0
4 -289 -132 0
-4 -290 187 0
4 -290 -187 0
-4 -291 231 0
4 -291 -231 0
-4 -292 232 0
4 -292 -232 0
-4 -293 256 0
4 -293 -256 0
-4 -294 257 0
4 -294 -257 0
-4 -295 258 0
4 -295 -258 0
-4 -296 262 0
4 -296 -262 0
-4 -297 263 0
4 -297 -263 0
-4 -298 270 0
4 -298 -270 0
-5 -299 27 0
5 -299 -27 0
-5 -300 42 0
5 -300 -42 0
-5 -301 53 0
5 -301 -53 0
-6 -302 8 0
6 -302 -8 0
-6 -303 9 0
6 -303 -9 0
-7 -304 9 0
7 -304 -9 0
-7 -305 30 0
7 -305 -30 0
-8 -306 14 0
8 -306 -14 0
-9 -307 14 0
9 -307 -14 0
-10 -308 31 0
10 -308 -31 0
-11 -309 14 0
11 -309 -14 0
-11 -310 32 0
11 -310 -32 0
-12 -311 23 0
12 -311 -23 0
-12 -312 130 0
12 -312 -130 0
-14 -313 15 0
14 -313 -15 0
-14 -314 19 0
14 -314 -19 0
-14 -315 37 0
14 -315 -37 0
-14 -316 39 0
14 -316 -39 0
-15 -317 21 0
15 -317 -21 0
-15 -318 31 0
15 -318 -31 0
-15 -319 33 0
15 -319 -33 0
-16 -320 29 0
16 -320 -29 0
-16 -321 34 0
16 -321 -34 0
-17 -322 25 0
17 -322 -25 0
-17 -323 28 0
17 -323 -28 0
-17 -324 214 0
17 -324 -214 0
-17 -325 216 0
17 -325 -216 0
-17 -326 223 0
17 -326 -223 0
-17 -327 237 0
17 -327 -237 0
-17 -328 242 0
17 -328 -242 0
-18 -329 24 0
18 -329 -24 0
-18 -330 31 0
18 -330 -31 0
-18 -331 34 0
18 -331 -34 0
-20 -332 26 0
20 -332 -26 0
-21 -333 35 0
21 -333 -35 0
-21 -334 57 0
21 -334 -57 0
-22 -335 30 0
22 -335 -30 0
-23 -336 26 0
23 -336 -26 0
-23 -337 27 0
23 -337 -27 0
-23 -338 43 0
23 -338 -43 0
-23 -339 44 0
23 -339 -44 0
-23 -340 50 0
23 -340 -50 0
-23 -341 53 0
23 -341 -53 0
-26 -342 29 0
26 -342 -29 0
-26 -343 33 0
26 -343 -33 0
-28 -344 130 0
28 -344 -130 0
-28 -345 256 0
28 -345 -256 0
-28 -346 257 0
28 -346 -257 0
-28 -347 273 0
28 -347 -273 0
-29 -348 272 0
29 -348 -272 0
-30 -349 33 0
30 -349 -33 0
-33 -350 280 0
33 -350 -280 0
-36 -351 39 0
36 -351 -39 0
-37 -352 38 0
37 -352 -38 0
-40 -353 41 0
40 -353 -41 0
-40 -354 55 0
40 -354 -55 0
-40 -355 57 0
40 -355 -57 0
-41 -356 56 0
41 -356 -56 0
-43 -357 130 0
43 -357 -130 0
-45 -358 46 0
45 -358 -46 0
-45 -359 189 0
45 -359 -189 0
-45 -360 190 0
45 -360 -190 0
-46 -361 47 0
46 -361 -47 0
-46 -362 49 0
46 -362 -49 0
-47 -363 59 0
47 -363 -59 0
-48 -364 189 0
48 -364 -189 0
-49 -365 152 0
49 -365 -152 0
-50 -366 277 0
50 -366 -277 0
-51 -367 52 0
51 -367 -52 0
-51 -368 183 0
51 -368 -183 0
-54 -369 56 0
54 -369 -56 0
-54 -370 130 0
54 -370 -130 0
-58 -371 137 0
58 -371 -137 0
-59 -372 155 0
59 -372 -155 0
-60 -373 74 0
60 -373 -74 0
-60 -374 189 0
60 -374 -189 0
-61 -375 190 0
61 -375 -190 0
-61 -376 278 0
61 -376 -278 0
-62 -377 190 0
62 -377 -190 0
-62 -378 191 0
62 -378 -191 0
-63 -379 152 0
63 -379 -152 0
-64 -380 69 0
64 -380 -69 0
-64 -381 175 0
64 -381 -175 0
-64 -382 183 0
64 -382 -183 0
-65 -383 168 0
65 -383 -168 0
-66 -384 168 0
66 -384 -168 0
-66 -385 170 0
66 -385 -170 0
-66 -386 275 0
66 -386 -275 0
-67 -387 174 0
67 -387 -174 0
-68 -388 170 0
68 -388 -170 0
-69 -389 177 0
69 -389 -177 0
-70 -390 177 0
70 -390 -177 0
-71 -391 178 0
71 -391 -178 0
-72 -392 167 0
72 -392 -167 0
-72 -393 182 0
72 -393 -182 0
-73 -394 188 0
73 -394 -188 0
-73 -395 193 0
73 -395 -193 0
-74 -396 75 0
74 -396 -75 0
-75 -397 196 0
75 -397 -196 0
-76 -398 184 0
76 -398 -184 0
-76 -399 188 0
76 -399 -188 0
-76 -400 195 0
76 -400 -195 0
-77 -401 128 0
77 -401 -128 0
-77 -402 180 0
77 -402 -180 0
-78 -403 176 0
78 -403 -176 0
-79 -404 158 0
79 -404 -158 0
-79 -405 198 0
79 -405 -198 0
-80 -406 196 0
80 -406 -196 0
-80 -407 197 0
80 -407 -197 0
-80 -408 269 0
80 -408 -269 0
-81 -409 154 0
81 -409 -154 0
-82 -410 184 0
82 -410 -184 0
-82 -411 186 0
82 -411 -186 0
-83 -412 186 0
83 -412 -186 0
-84 -413 128 0
84 -413 -128 0
-84 -414 173 0
84 -414 -173 0
-85 -415 202 0
85 -415 -202 0
-86 -416 185 0
86 -416 -185 0
-87 -417 156 0
87 -417 -156 0
-87 -418 218 0
87 -418 -218 0
-88 -419 163 0
88 -419 -163 0
-89 -420 179 0
89 -420 -179 0
-90 -421 157 0
90 -421 -157 0
-91 -422 218 0
91 -422 -218 0
-92 -423 143 0
92 -423 -143 0
-93 -424 259 0
93 -424 -259 0
-93 -425 279 0
93 -425 -279 0
-94 -426 220 0
94 -426 -220 0
-95 -427 97 0
95 -427 -97 0
-95 -428 265 0
95 -428 -265 0
-96 -429 263 0
96 -429 -263 0
-97 -430 258 0
97 -430 -258 0
-98 -431 260 0
98 -431 -260 0
-98 -432 261 0
98 -432 -261 0
-99 -433 219 0
99 -433 -219 0
-99 -434 224 0
99 -434 -224 0
-100 -435 101 0
100 -435 -101 0
-100 -436 225 0
100 -436 -225 0
-101 -437 164 0
101 -437 -164 0
-102 -438 164 0
102 -438 -164 0
-102 -439 227 0
102 -439 -227 0
-103 -440 164 0
103 -440 -164 0
-104 -441 223 0
104 -441 -223 0
-104 -442 226 0
104 -442 -226 0
-104 -443 227 0
104 -443 -227 0
-105 -444 107 0
105 -444 -107 0
-105 -445 222 0
105 -445 -222 0
-106 -446 221 0
106 -446 -221 0
-106 -447 222 0
106 -447 -222 0
-107 -448 122 0
107 -448 -122 0
-108 -449 247 0
108 -449 -247 0
-109 -450 247 0
109 -450 -247 0
-109 -451 248 0
109 -451 -248 0
-110 -452 162 0
110 -452 -162 0
-110 -453 248 0
110 -453 -248 0
-111 -454 112 0
111 -454 -112 0
-111 -455 249 0
111 -455 -249 0
-112 -456 151 0
112 -456 -151 0
-112 -457 250 0
112 -457 -250 0
-113 -458 150 0
113 -458 -150 0
-113 -459 251 0
113 -459 -251 0
-114 -460 115 0
114 -460 -115 0
-114 -461 230 0
114 -461 -230 0
-115 -462 232 0
115 -462 -232 0
-116 -463 234 0
116 -463 -234 0
-117 -464 235 0
117 -464 -235 0
-118 -465 119 0
118 -465 -119 0
-118 -466 238 0
118 -466 -238 0
-119 -467 243 0
119 -467 -243 0
-120 -468 236 0
120 -468 -236 0
-120 -469 243 0
120 -469 -243 0
-121 -470 244 0
121 -470 -244 0
-122 -471 230 0
122 -471 -230 0
-123 -472 235 0
123 -472 -235 0
-123 -473 245 0
123 -473 -245 0
-124 -474 246 0
124 -474 -246 0
-125 -475 170 0
125 -475 -170 0
-125 -476 171 0
125 -476 -171 0
-126 -477 193 0
126 -477 -193 0
-127 -478 132 0
127 -478 -132 0
-127 -479 268 0
127 -479 -268 0
-128 -480 154 0
128 -480 -154 0
-128 -481 176 0
128 -481 -176 0
-129 -482 130 0
129 -482 -130 0
-129 -483 159 0
129 -483 -159 0
-130 -484 158 0
130 -484 -158 0
-130 -485 160 0
130 -485 -160 0
-130 -486 191 0
130 -486 -191 0
-131 -487 198 0
131 -487 -198 0
-131 -488 204 0
131 -488 -204 0
-132 -489 202 0
132 -489 -202 0
-132 -490 211 0
132 -490 -211 0
-132 -491 263 0
132 -491 -263 0
-132 -492 266 0
132 -492 -266 0
-133 -493 199 0
133 -493 -199 0
-133 -494 200 0
133 -494 -200 0
-134 -495 187 0
134 -495 -187 0
-134 -496 200 0
134 -496 -200 0
-135 -497 185 0
135 -497 -185 0
-135 -498 187 0
135 -498 -187 0
-136 -499 259 0
136 -499 -259 0
-136 -500 260 0
136 -500 -260 0
-137 -501 179 0
137 -501 -179 0
-137 -502 219 0
137 -502 -219 0
-138 -503 161 0
138 -503 -161 0
-138 -504 215 0
138 -504 -215 0
-139 -505 142 0
139 -505 -142 0
-139 -506 171 0
139 -506 -171 0
-139 -507 174 0
139 -507 -174 0
-140 -508 141 0
140 -508 -141 0
-141 -509 161 0
141 -509 -161 0
-141 -510 212 0
141 -510 -212 0
-142 -511 161 0
142 -511 -161 0
-142 -512 173 0
142 -512 -173 0
-142 -513 175 0
142 -513 -175 0
-142 -514 213 0
142 -514 -213 0
-143 -515 169 0
143 -515 -169 0
-144 -516 145 0
144 -516 -145 0
-144 -517 229 0
144 -517 -229 0
-145 -518 230 0
145 -518 -230 0
-145 -519 231 0
145 -519 -231 0
-146 -520 260 0
146 -520 -260 0
-146 -521 262 0
146 -521 -262 0
-147 -522 221 0
147 -522 -221 0
-147 -523 236 0
147 -523 -236 0
-147 -524 239 0
147 -524 -239 0
-148 -525 149 0
148 -525 -149 0
-148 -526 244 0
148 -526 -244 0
-148 -527 245 0
148 -527 -245 0
-149 -528 162 0
149 -528 -162 0
-149 -529 245 0
149 -529 -245 0
-149 -530 246 0
149 -530 -246 0
-150 -531 246 0
150 -531 -246 0
-150 -532 249 0
150 -532 -249 0
-151 -533 250 0
151 -533 -250 0
-151 -534 253 0
151 -534 -253 0
-152 -535 167 0
152 -535 -167 0
-153 -536 231 0
153 -536 -231 0
-153 -537 232 0
153 -537 -232 0
-153 -538 247 0
153 -538 -247 0
-154 -539 156 0
154 -539 -156 0
-155 -540 188 0
155 -540 -188 0
-155 -541 278 0
155 -541 -278 0
-156 -542 163 0
156 -542 -163 0
-157 -543 163 0
157 -543 -163 0
-157 -544 217 0
157 -544 -217 0
-158 -545 159 0
158 -545 -159 0
-159 -546 209 0
159 -546 -209 0
-160 -547 192 0
160 -547 -192 0
-160 -548 194 0
160 -548 -194 0
-162 -549 249 0
162 -549 -249 0
-165 -550 229 0
165 -550 -229 0
-166 -551 196 0
166 -551 -196 0
-168 -552 169 0
168 -552 -169 0
-169 -553 242 0
169 -553 -242 0
-171 -554 172 0
171 -554 -172 0
-173 -555 179 0
173 -555 -179 0
-174 -556 175 0
174 -556 -175 0
-176 -557 178 0
176 -557 -178 0
-177 -558 178 0
177 -558 -178 0
-179 -559 217 0
179 -559 -217 0
-180 -560 181 0
180 -560 -181 0
-180 -561 184 0
180 -561 -184 0
-181 -562 182 0
181 -562 -182 0
-182 -563 278 0
182 -563 -278 0
-183 -564 277 0
183 -564 -277 0
-185 -565 186 0
185 -565 -186 0
-191 -566 192 0
191 -566 -192 0
-192 -567 193 0
192 -567 -193 0
-197 -568 198 0
197 -568 -198 0
-197 -569 199 0
197 -569 -199 0
-199 -570 202 0
199 -570 -202 0
-200 -571 201 0
200 -571 -201 0
-203 -572 204 0
203 -572 -204 0
-203 -573 272 0
203 -573 -272 0
-203 -574 273 0
203 -574 -273 0
-204 -575 208 0
204 -575 -208 0
-204 -576 269 0
204 -576 -269 0
-205 -577 208 0
205 -577 -208 0
-205 -578 272 0
205 -578 -272 0
-206 -579 210 0
206 -579 -210 0
-207 -580 209 0
207 -580 -209 0
-208 -581 210 0
208 -581 -210 0
-209 -582 210 0
209 -582 -210 0
-211 -583 258 0
211 -583 -258 0
-211 -584 264 0
211 -584 -264 0
-213 -585 214 0
213 -585 -214 0
-213 -586 242 0
213 -586 -242 0
-214 -587 215 0
214 -587 -215 0
-214 -588 216 0
214 -588 -216 0
-214 -589 242 0
214 -589 -242 0
-215 -590 216 0
215 -590 -216 0
-218 -591 279 0
218 -591 -279 0
-219 -592 259 0
219 -592 -259 0
-220 -593 261 0
220 -593 -261 0
-220 -594 279 0
220 -594 -279 0
-221 -595 237 0
221 -595 -237 0
-222 -596 226 0
222 -596 -226 0
-223 -597 224 0
223 -597 -224 0
-224 -598 225 0
224 -598 -225 0
-225 -599 276 0
225 -599 -276 0
-226 -600 228 0
226 -600 -228 0
-227 -601 228 0
227 -601 -228 0
-228 -602 229 0
228 -602 -229 0
-233 -603 234 0
233 -603 -234 0
-234 -604 235 0
234 -604 -235 0
-237 -605 241 0
237 -605 -241 0
-238 -606 240 0
238 -606 -240 0
-238 -607 241 0
238 -607 -241 0
-243 -608 244 0
243 -608 -244 0
-250 -609 251 0
250 -609 -251 0
-251 -610 254 0
251 -610 -254 0
-252 -611 253 0
252 -611 -253 0
-252 -612 254 0
252 -612 -254 0
-253 -613 255 0
253 -613 -255 0
-256 -614 274 0
256 -614 -274 0
-261 -615 262 0
261 -615 -262 0
-266 -616 268 0
266 -616 -268 0
-267 -617 268 0
267 -617 -268 0
-269 -618 270 0
269 -618 -270 0
-270 -619 271 0
270 -619 -271 0
